DATASET = "thpack4";
INSTANCE = "068";

WIDTH = 233;
HEIGHT = 220;
LENGTH = 587;

NO_OF_SHAPES = 10;
size = [|
  60,44,36 |
  76,42,40 |
  65,49,48 |
  109,92,51 |
  93,42,31 |
  83,64,59 |
  96,90,55 |
  52,42,31 |
  98,72,61 |
  118,98,57 |
|];

verticality = [|
  1,1,1 |
  1,1,1 |
  1,1,1 |
  0,1,1 |
  0,1,1 |
  1,1,1 |
  1,1,1 |
  1,1,1 |
  1,1,1 |
  0,1,1 |
|];

box_count = [
  9,
  8,
  11,
  10,
  12,
  7,
  11,
  15,
  8,
  12,
];
